p tw 233 263
1 2
2 113
3 14
4 5
5 6
6 7
6 10
7 8
8 9
9 10
10 11
11 12
12 13
13 15
14 25
15 16
15 24
16 17
17 18
18 19
19 20
20 21
21 22
22 23
23 14
24 26
25 36
26 149
27 28
28 29
29 30
30 31
31 32
32 33
33 34
34 35
35 37
36 47
37 38
37 41
38 39
39 40
40 41
41 42
42 43
43 44
44 45
45 46
46 48
47 58
48 49
49 50
50 51
51 52
51 57
52 53
53 54
54 55
55 56
56 46
57 59
58 69
59 60
60 61
61 62
62 63
63 64
63 14
64 65
65 66
66 67
67 68
67 70
68 149
69 80
69 143
70 71
71 72
72 73
73 74
74 75
75 61
76 77
77 78
78 79
79 81
80 143
80 206
80 91
80 85
80 155
80 76
80 171
80 99
80 188
80 162
80 167
80 216
80 226
80 27
81 82
82 83
83 84
83 123
84 79
85 86
86 87
87 88
88 89
89 90
90 92
91 102
92 93
93 94
94 95
95 96
95 89
96 97
97 98
98 126
99 100
100 101
101 103
102 114
103 104
104 105
105 106
106 107
107 108
108 109
109 110
110 111
111 112
112 115
113 157
114 125
115 116
116 117
116 103
117 118
118 119
119 120
120 121
121 122
122 126
123 124
124 126
125 136
126 127
127 128
128 129
129 130
130 131
131 132
131 141
132 133
133 134
134 135
135 137
135 138
136 147
137 149
138 139
139 140
140 141
140 128
141 142
142 149
143 144
144 145
145 146
146 148
147 151
148 14
149 150
151 152
152 153
153 154
153 14
154 149
155 156
156 158
157 168
158 159
159 160
160 161
160 14
161 149
162 163
163 164
164 165
165 166
165 14
166 149
167 169
168 179
169 170
170 149
171 172
172 173
173 174
174 175
175 176
176 177
177 178
178 180
179 190
180 181
180 186
181 182
182 183
183 184
184 185
185 14
186 187
187 149
188 189
189 191
190 201
191 192
192 193
193 194
194 195
195 196
196 197
197 198
197 204
198 199
199 200
200 202
201 212
202 203
203 14
204 205
205 149
206 207
207 208
208 209
209 210
210 211
211 213
212 223
213 214
214 215
215 14
216 217
217 218
218 219
219 220
220 221
221 222
222 224
223 3
224 225
225 14
226 227
227 228
228 229
229 230
230 231
231 232
232 233
233 4
